 vasp.5.4.4.18Apr17-6-g9f103f2a35 (build Sep 05 2018 15:32:50) complex

 executed on             LinuxIFC date 2022.02.14  09:37:05

 INCAR:
 POTCAR:    PAW_PBE Ge_d 03Jul2007
 POTCAR:    PAW_PBE Ge_d 03Jul2007
   VRHFIN =Ge: 3d4s4p

   TITEL  = PAW_PBE Ge_d 03Jul2007
   POMASS =   72.610; ZVAL   =   14.000    mass and valenz
   ENMAX  =  310.294; ENMIN  =  232.720 eV

  PAW_PBE Ge_d 03Jul2007                :

 POSCAR: generated by phonopy
  positions in direct lattice
 exchange correlation table for  LEXCH =        8
   RHO(1)=    0.500       N(1)  =     2000
   RHO(2)=  100.500       N(2)  =     4000

 ion  position               nearest neighbor table
   1  0.252  0.999  0.252-  27 2.46  59 2.49  41 2.50   9 2.52
   2  0.752  0.001  0.252-  42 2.47  60 2.51  10 2.52  28 2.53
   3  0.250  0.501  0.252-  11 2.50  43 2.50  25 2.51  57 2.53
   4  0.752  0.499  0.249-  44 2.48  12 2.48  58 2.49  26 2.50
   5  0.252  0.999  0.749-  63 2.47  13 2.50  45 2.51  31 2.53
   6  0.748  0.998  0.750-  32 2.48  64 2.49  46 2.50  14 2.52
   7  0.249  0.499  0.752-  29 2.44  15 2.50  61 2.51  47 2.52
   8  0.750  0.500  0.747-  62 2.46  16 2.49  30 2.50  48 2.53
   9  0.127  0.125  0.124-  17 2.46  33 2.50  49 2.51   1 2.52
  10  0.626  0.127  0.124-  50 2.49  18 2.50   2 2.52  34 2.54
  11  0.123  0.623  0.125-  35 2.50   3 2.50  51 2.52  19 2.52
  12  0.626  0.625  0.128-   4 2.48  36 2.50  52 2.50  20 2.53
  13  0.124  0.125  0.627-  53 2.49  37 2.49   5 2.50  21 2.55
  14  0.623  0.125  0.623-  54 2.46  38 2.48  22 2.50   6 2.52
  15  0.124  0.624  0.627-  55 2.46  39 2.47   7 2.50  23 2.55
  16  0.623  0.626  0.626-   8 2.49  56 2.50  24 2.50  40 2.50
  17  0.251  0.248  0.999-   9 2.46  45 2.49  29 2.52  57 2.53
  18  0.751  0.252  0.999-  58 2.46  30 2.49  46 2.49  10 2.50
  19  0.249  0.752  0.002-  59 2.45  31 2.51  47 2.51  11 2.52
  20  0.751  0.750  0.998-  48 2.48  32 2.48  60 2.51  12 2.53
  21  0.251  0.250  0.498-  41 2.46  25 2.46  61 2.52  13 2.55
  22  0.752  0.249  0.500-  42 2.46  62 2.49  14 2.50  26 2.51
  23  0.252  0.751  0.499-  63 2.46  43 2.47  27 2.50  15 2.55
  24  0.750  0.747  0.500-  44 2.46  16 2.50  28 2.51  64 2.53
  25  0.125  0.372  0.375-  49 2.46  21 2.46   3 2.51  39 2.53
  26  0.627  0.376  0.376-  40 2.46   4 2.50  22 2.51  50 2.55
  27  0.126  0.877  0.374-   1 2.46  23 2.50  51 2.51  37 2.53
  28  0.623  0.873  0.375-  52 2.49  24 2.51  38 2.52   2 2.53
  29  0.126  0.375  0.873-   7 2.44  53 2.50  35 2.50  17 2.52
  30  0.626  0.377  0.876-  18 2.49  36 2.50   8 2.50  54 2.54
  31  0.122  0.875  0.875-  33 2.49  19 2.51  55 2.51   5 2.53
  32  0.625  0.876  0.877-  34 2.46  20 2.48   6 2.48  56 2.50
  33  0.999  0.002  1.000-  46 2.47  31 2.49   9 2.50  60 2.51
  34  0.499  0.998  0.999-  32 2.46  45 2.48  59 2.50  10 2.54
  35  0.999  0.497  1.000-  48 2.48  58 2.49  11 2.50  29 2.50
  36  0.501  0.503  1.000-  47 2.47  57 2.49  30 2.50  12 2.50
  37  0.998  0.002  0.501-  13 2.49  42 2.50  64 2.51  27 2.53
  38  0.498  0.001  0.500-  41 2.46  14 2.48  63 2.51  28 2.52
  39  0.000  0.501  0.502-  15 2.47  62 2.47  44 2.53  25 2.53
  40  0.501  0.498  0.499-  26 2.46  61 2.47  16 2.50  43 2.51
  41  0.376  0.126  0.377-  21 2.46  38 2.46  50 2.47   1 2.50
  42  0.874  0.127  0.374-  22 2.46   2 2.47  49 2.48  37 2.50
  43  0.376  0.627  0.376-  52 2.47  23 2.47   3 2.50  40 2.51
  44  0.872  0.625  0.374-  24 2.46   4 2.48  51 2.51  39 2.53
  45  0.378  0.125  0.875-  54 2.48  34 2.48  17 2.49   5 2.51
  46  0.873  0.123  0.875-  33 2.47  18 2.49  53 2.49   6 2.50
  47  0.376  0.626  0.877-  36 2.47  56 2.48  19 2.51   7 2.52
  48  0.876  0.624  0.877-  20 2.48  35 2.48  55 2.51   8 2.53
  49  0.002  0.250  0.252-  25 2.46  42 2.48   9 2.51  58 2.52
  50  0.499  0.248  0.250-  41 2.47  10 2.49  57 2.51  26 2.55
  51  0.998  0.752  0.250-  60 2.44  27 2.51  44 2.51  11 2.52
  52  0.497  0.750  0.250-  43 2.47  59 2.48  28 2.49  12 2.50
  53  0.998  0.249  0.751-  13 2.49  46 2.49  29 2.50  62 2.53
  54  0.500  0.248  0.749-  14 2.46  45 2.48  61 2.52  30 2.54
  55  0.000  0.748  0.748-  15 2.46  64 2.47  31 2.51  48 2.51
  56  0.499  0.751  0.752-  47 2.48  63 2.49  32 2.50  16 2.50
  57  0.377  0.377  0.124-  36 2.49  50 2.51   3 2.53  17 2.53
  58  0.875  0.373  0.124-  18 2.46  35 2.49   4 2.49  49 2.52
  59  0.373  0.873  0.124-  19 2.45  52 2.48   1 2.49  34 2.50
  60  0.877  0.874  0.126-  51 2.44   2 2.51  33 2.51  20 2.51
  61  0.376  0.377  0.624-  40 2.47   7 2.51  21 2.52  54 2.52
  62  0.874  0.377  0.624-   8 2.46  39 2.47  22 2.49  53 2.53
  63  0.374  0.873  0.626-  23 2.46   5 2.47  56 2.49  38 2.51
  64  0.876  0.875  0.627-  55 2.47   6 2.49  37 2.51  24 2.53

  LATTYP: Found a simple cubic cell.
 ALAT       =    11.5257240000

  Lattice vectors:

 A1 = (  11.5257240000,   0.0000000000,   0.0000000000)
 A2 = (   0.0000000000,  11.5257240000,   0.0000000000)
 A3 = (   0.0000000000,   0.0000000000,  11.5257240000)

Analysis of symmetry for initial positions (statically):
 Subroutine PRICEL returns:
 Original cell was already a primitive cell.

 Routine SETGRP: Setting up the symmetry group for a
 simple cubic supercell.

 Subroutine GETGRP returns: Found  1 space group operations
 (whereof  1 operations were pure point group operations)
 out of a pool of 48 trial point group operations.

The static configuration has the point symmetry C_1 .

Analysis of symmetry for dynamics (positions and initial velocities):
 Subroutine PRICEL returns:
 Original cell was already a primitive cell.

 Routine SETGRP: Setting up the symmetry group for a
 simple cubic supercell.

 Subroutine GETGRP returns: Found  1 space group operations
 (whereof  1 operations were pure point group operations)
 out of a pool of 48 trial point group operations.

The dynamic configuration has the point symmetry C_1 .

 Subroutine INISYM returns: Found  1 space group operations
 (whereof  1 operations are pure point group operations),
 and found     1 'primitive' translations

 KPOINTS: grid density

Automatic generation of k-mesh.
Space group operators:
 irot       det(A)        alpha          n_x          n_y          n_z        tau_x        tau_y        tau_z
    1     1.000000     0.000000     1.000000     0.000000     0.000000     0.000000     0.000000     0.000000

 Subroutine IBZKPT returns following result:

 Found     32 irreducible k-points:

 Following reciprocal coordinates:
            Coordinates               Weight
  0.125000  0.125000  0.125000      2.000000
  0.375000  0.125000  0.125000      2.000000
 -0.375000  0.125000  0.125000      2.000000
 -0.125000  0.125000  0.125000      2.000000
  0.125000  0.375000  0.125000      2.000000
  0.375000  0.375000  0.125000      2.000000
 -0.375000  0.375000  0.125000      2.000000
 -0.125000  0.375000  0.125000      2.000000
  0.125000 -0.375000  0.125000      2.000000
  0.375000 -0.375000  0.125000      2.000000
 -0.375000 -0.375000  0.125000      2.000000
 -0.125000 -0.375000  0.125000      2.000000
  0.125000 -0.125000  0.125000      2.000000
  0.375000 -0.125000  0.125000      2.000000
 -0.375000 -0.125000  0.125000      2.000000
 -0.125000 -0.125000  0.125000      2.000000
  0.125000  0.125000  0.375000      2.000000
  0.375000  0.125000  0.375000      2.000000
 -0.375000  0.125000  0.375000      2.000000
 -0.125000  0.125000  0.375000      2.000000
  0.125000  0.375000  0.375000      2.000000
  0.375000  0.375000  0.375000      2.000000
 -0.375000  0.375000  0.375000      2.000000
 -0.125000  0.375000  0.375000      2.000000
  0.125000 -0.375000  0.375000      2.000000
  0.375000 -0.375000  0.375000      2.000000
 -0.375000 -0.375000  0.375000      2.000000
 -0.125000 -0.375000  0.375000      2.000000
  0.125000 -0.125000  0.375000      2.000000
  0.375000 -0.125000  0.375000      2.000000
 -0.375000 -0.125000  0.375000      2.000000
 -0.125000 -0.125000  0.375000      2.000000

 Following cartesian coordinates:
            Coordinates               Weight
  0.010845  0.010845  0.010845      2.000000
  0.032536  0.010845  0.010845      2.000000
 -0.032536  0.010845  0.010845      2.000000
 -0.010845  0.010845  0.010845      2.000000
  0.010845  0.032536  0.010845      2.000000
  0.032536  0.032536  0.010845      2.000000
 -0.032536  0.032536  0.010845      2.000000
 -0.010845  0.032536  0.010845      2.000000
  0.010845 -0.032536  0.010845      2.000000
  0.032536 -0.032536  0.010845      2.000000
 -0.032536 -0.032536  0.010845      2.000000
 -0.010845 -0.032536  0.010845      2.000000
  0.010845 -0.010845  0.010845      2.000000
  0.032536 -0.010845  0.010845      2.000000
 -0.032536 -0.010845  0.010845      2.000000
 -0.010845 -0.010845  0.010845      2.000000
  0.010845  0.010845  0.032536      2.000000
  0.032536  0.010845  0.032536      2.000000
 -0.032536  0.010845  0.032536      2.000000
 -0.010845  0.010845  0.032536      2.000000
  0.010845  0.032536  0.032536      2.000000
  0.032536  0.032536  0.032536      2.000000
 -0.032536  0.032536  0.032536      2.000000
 -0.010845  0.032536  0.032536      2.000000
  0.010845 -0.032536  0.032536      2.000000
  0.032536 -0.032536  0.032536      2.000000
 -0.032536 -0.032536  0.032536      2.000000
 -0.010845 -0.032536  0.032536      2.000000
  0.010845 -0.010845  0.032536      2.000000
  0.032536 -0.010845  0.032536      2.000000
 -0.032536 -0.010845  0.032536      2.000000
 -0.010845 -0.010845  0.032536      2.000000

 SYSTEM =  unknown system
 POSCAR =  generated by phonopy

 Startparameter for this run:
   NWRITE =      2    write-flag & timer
   PREC   = accura    normal or accurate (medium, high low for compatibility)
   ISTART =      0    job   : 0-new  1-cont  2-samecut
   ICHARG =      2    charge: 1-file 2-atom 10-const
   ISPIN  =      1    spin polarized calculation?
   LNONCOLLINEAR =      F non collinear calculations
   LSORBIT =      F    spin-orbit coupling
   INIWAV =      1    electr: 0-lowe 1-rand  2-diag
   LASPH  =      F    aspherical Exc in radial PAW
   METAGGA=      F    non-selfconsistent MetaGGA calc.

 Electronic Relaxation 1
   ENCUT  =  500.0 eV  36.75 Ry    6.06 a.u.  21.01 21.01 21.01*2*pi/ulx,y,z
   ENINI  =  500.0     initial cutoff
   ENAUG  =  531.4 eV  augmentation charge cutoff
   NELM   =     60;   NELMIN=  2; NELMDL= -5     # of ELM steps
   EDIFF  = 0.1E-07   stopping-criterion for ELM
   LREAL  =      F    real-space projection
   NLSPLINE    = F    spline interpolate recip. space projectors
   LCOMPAT=      F    compatible to vasp.4.4
   GGA_COMPAT  = T    GGA compatible to vasp.4.4-vasp.4.6
   LMAXPAW     = -100 max onsite density
   LMAXMIX     =    2 max onsite mixed and CHGCAR
   VOSKOWN=      0    Vosko Wilk Nusair interpolation
   ROPT   =    0.00000
 Ionic relaxation
   EDIFFG = 0.1E-06   stopping-criterion for IOM
   NSW    =      0    number of steps for IOM
   NBLOCK =      1;   KBLOCK =      1    inner block; outer block
   IBRION =     -1    ionic relax: 0-MD 1-quasi-New 2-CG
   NFREE  =      0    steps in history (QN), initial steepest desc. (CG)
   ISIF   =      2    stress and relaxation
   IWAVPR =     10    prediction:  0-non 1-charg 2-wave 3-comb
   ISYM   =      2    0-nonsym 1-usesym 2-fastsym
[...]
     58     -20.2852      2.00000
     59     -20.2831      2.00000
     60     -20.2809      2.00000
[...]
    526       9.1487      0.00000
    527       9.1720      0.00000
    528       9.1921      0.00000
    529       9.2072      0.00000
    530       9.2151      0.00000
    531       9.2259      0.00000
    532       9.2582      0.00000
    533       9.2867      0.00000
    534       9.2963      0.00000
    535       9.3429      0.00000
    536       9.3642      0.00000
    537       9.4159      0.00000
    538       9.4347      0.00000
    539       9.4685      0.00000
    540       9.4831      0.00000

 soft charge-density along one line, spin component           1
         0         1         2         3         4         5         6         7         8         9
 total charge-density along one line

------------------------ aborting loop because EDIFF is reached ----------------------------------------

  FORCE on cell =-STRESS in cart. coord.  units (eV):
  Direction    XX          YY          ZZ          XY          YZ          ZX
  Alpha Z  3918.90070  3918.90070  3918.90070
  Ewald  -28136.57232-28137.22263-28136.37474  -109.06913    52.28998  -107.67618
  Hartree 16487.13223 16487.54864 16488.07738   -66.05933    31.38788   -64.36417
  E(xc)   -5266.18476 -5266.18868 -5266.18771    -0.09628     0.04709    -0.09809
  Local   -1495.27006 -1495.06168 -1496.44397   173.91672   -83.06084   170.79040
  n-local  1819.35743  1819.28638  1819.31510    -1.48176     0.72686    -1.51674
  augment  8064.38778  8064.40532  8064.41143     0.55712    -0.28304     0.58302
  Kinetic  4606.81490  4606.85106  4606.85146     1.37635    -0.65121     1.36980
  Fock        0.00000     0.00000     0.00000     0.00000     0.00000     0.00000
  Total      -1.43412    -1.48089    -1.45035    -0.85630     0.45672    -0.91196
  in kB      -1.50069    -1.54963    -1.51768    -0.89605     0.47792    -0.95429

 VOLUME and BASIS-vectors are now :
  energy-cutoff  :      500.00
  volume of cell :     1531.10
      direct lattice vectors                 reciprocal lattice vectors
    11.525724000  0.000000000  0.000000000     0.086762445  0.000000000  0.000000000
     0.000000000 11.525724000  0.000000000     0.000000000  0.086762445  0.000000000
     0.000000000  0.000000000 11.525724000     0.000000000  0.000000000  0.086762445

  length of vectors
    11.525724000 11.525724000 11.525724000     0.086762445  0.086762445  0.086762445

 FORCES acting on ions
    electron-ion (+dipol)            ewald-force                    non-local-force                 convergence-correction
   -.160E+01 -.178E+02 0.102E+02   0.180E+01 0.183E+02 -.103E+02   -.189E+00 -.229E+00 -.127E+00   0.327E-07 -.469E-06 0.607E-06
   0.189E+02 0.137E+02 0.426E+01   -.196E+02 -.142E+02 -.475E+01   0.401E+00 0.337E+00 0.274E+00   0.615E-06 0.624E-06 0.649E-07
   0.314E+01 0.669E+01 0.235E+01   -.315E+01 -.682E+01 -.255E+01   0.184E-01 -.693E-03 0.541E-01   -.161E-05 0.934E-06 0.388E-07
   -.304E+01 0.773E+01 0.728E+01   0.289E+01 -.793E+01 -.734E+01   0.128E-01 0.165E+00 0.122E+00   -.495E-06 0.519E-06 0.934E-06
   0.148E+02 -.614E+01 -.849E+01   -.152E+02 0.614E+01 0.906E+01   0.912E-01 0.312E-01 -.331E+00   0.845E-06 -.470E-06 -.947E-06
   0.505E+01 -.683E+01 0.174E+02   -.557E+01 0.704E+01 -.178E+02   0.453E+00 -.316E-01 0.322E+00   -.721E-06 -.425E-06 0.582E-06
   -.235E+02 -.934E+01 0.419E+01   0.241E+02 0.987E+01 -.436E+01   -.279E+00 -.241E+00 -.505E-01   -.971E-06 -.513E-06 0.204E-06
   0.431E+01 -.109E+02 -.932E+01   -.454E+01 0.115E+02 0.968E+01   0.168E+00 -.370E+00 -.604E-01   -.360E-06 -.691E-06 -.580E-06
   -.113E+01 0.323E+01 -.912E+01   0.118E+01 -.370E+01 0.950E+01   -.156E+00 0.303E+00 -.121E+00   0.809E-06 0.146E-05 0.254E-06
   0.516E+01 0.124E+02 0.232E+01   -.501E+01 -.128E+02 -.223E+01   -.215E+00 0.959E-01 -.671E-01   0.126E-06 0.554E-06 0.141E-05
   0.828E-01 0.563E+01 -.230E+01   0.924E-02 -.550E+01 0.252E+01   -.185E-01 0.449E-01 -.153E+00   0.126E-05 -.101E-05 0.930E-06
   -.616E+01 -.114E+02 -.346E+00   0.633E+01 0.118E+02 0.973E-01   -.130E+00 -.215E+00 0.104E-01   -.109E-05 -.622E-06 -.778E-06
   -.119E+02 -.822E+01 0.113E+01   0.122E+02 0.825E+01 -.130E+01   -.601E-01 0.621E-01 -.502E-01   -.140E-05 0.155E-07 -.552E-06
   -.220E+02 0.683E+01 0.207E+01   0.221E+02 -.708E+01 -.218E+01   0.160E+00 0.884E-01 0.160E+00   -.113E-05 -.287E-06 -.113E-07
   -.315E+02 -.914E+01 0.194E+02   0.324E+02 0.932E+01 -.197E+02   -.470E+00 -.464E-01 0.856E-01   -.191E-05 -.246E-06 0.799E-07
   0.104E+02 -.984E+01 -.646E+01   -.105E+02 0.988E+01 0.618E+01   0.180E+00 -.701E-01 0.219E+00   0.470E-06 0.224E-07 -.915E-06
   -.884E+01 -.187E+02 -.582E+00   0.914E+01 0.197E+02 0.708E+00   -.155E+00 -.506E+00 -.160E+00   -.279E-06 0.475E-07 0.211E-06
   0.149E+02 0.864E+01 0.617E+01   -.154E+02 -.885E+01 -.661E+01   0.261E+00 0.267E-01 0.412E+00   -.339E-07 0.991E-07 0.474E-06
   0.234E+02 0.183E+02 0.109E+02   -.243E+02 -.188E+02 -.112E+02   0.628E+00 0.178E+00 0.187E+00   0.102E-05 -.317E-06 0.847E-06
   0.269E+01 0.204E+00 -.129E+02   -.281E+01 -.478E+00 0.136E+02   0.341E-01 0.212E+00 -.244E+00   -.675E-06 0.498E-07 -.262E-08
   0.112E+02 -.108E+01 -.291E+02   -.116E+02 0.107E+01 0.303E+02   0.270E+00 -.520E-01 -.662E+00   -.797E-06 0.105E-05 -.191E-05
   0.707E+01 0.644E+01 -.888E+01   -.736E+01 -.593E+01 0.896E+01   0.129E-01 -.261E+00 -.521E-01   0.120E-05 0.286E-06 -.149E-05
   0.376E+02 0.184E+02 -.727E+01   -.384E+02 -.187E+02 0.730E+01   0.333E+00 0.105E+00 0.126E+00   0.205E-05 -.284E-06 -.940E-07
   -.441E+01 -.255E+02 -.860E+01   0.420E+01 0.258E+02 0.919E+01   0.209E-01 -.497E-01 -.366E+00   -.688E-06 -.846E-06 -.460E-06
   0.493E+01 -.279E+02 -.263E+00   -.467E+01 0.287E+02 0.498E+00   -.242E+00 -.254E+00 -.157E+00   0.128E-05 -.107E-07 0.331E-07
   0.333E+01 0.149E+02 0.188E+02   -.313E+01 -.160E+02 -.194E+02   -.234E+00 0.711E+00 0.371E+00   -.610E-06 -.134E-06 0.405E-06
   0.239E+02 0.895E+01 -.163E+02   -.245E+02 -.883E+01 0.166E+02   0.332E+00 -.236E+00 -.128E+00   0.233E-06 -.660E-07 -.277E-06
   -.148E+02 -.141E+02 -.129E+00   0.151E+02 0.142E+02 0.365E+00   -.178E+00 0.941E-01 -.178E+00   0.562E-06 -.666E-07 0.119E-07
   -.542E+01 0.124E+02 -.132E+02   0.507E+01 -.133E+02 0.135E+02   0.133E+00 0.525E+00 -.108E-01   -.974E-07 0.398E-06 -.307E-06
   0.208E+02 0.704E+01 0.595E+01   -.210E+02 -.694E+01 -.661E+01   0.835E-01 -.248E+00 0.410E+00   0.538E-06 0.212E-06 0.587E-06
   0.191E+00 -.718E+00 0.671E+01   -.615E-02 0.105E+01 -.720E+01   0.335E-01 -.276E+00 0.333E+00   0.136E-05 -.163E-05 -.696E-06
   -.940E+01 0.454E+01 -.363E+00   0.944E+01 -.448E+01 0.267E+00   -.802E-02 -.227E+00 -.131E+00   -.971E-06 0.494E-06 -.453E-07
   -.248E+01 0.585E+00 -.900E+01   0.243E+01 -.963E+00 0.944E+01   0.121E+00 0.159E+00 -.292E+00   -.929E-06 -.377E-06 0.563E-07
   -.350E+01 -.167E+02 -.315E+02   0.363E+01 0.174E+02 0.324E+02   -.404E-01 -.418E+00 -.477E+00   0.958E-06 -.328E-06 -.155E-05
   -.176E+02 0.481E+01 -.702E+01   0.180E+02 -.506E+01 0.719E+01   -.197E+00 0.275E+00 -.126E+00   0.356E-06 0.789E-06 0.595E-06
   0.248E+00 0.113E+02 -.165E+01   0.129E+00 -.111E+02 0.202E+01   -.232E+00 -.231E+00 -.258E+00   -.186E-06 0.697E-06 -.232E-06
   0.243E+01 0.137E+02 0.552E+01   -.229E+01 -.134E+02 -.557E+01   -.156E-01 -.368E+00 -.515E-02   -.402E-07 0.166E-05 0.402E-06
   -.148E+02 0.183E+02 0.334E-01   0.150E+02 -.192E+02 0.244E-01   -.421E-01 0.553E+00 -.938E-02   0.102E-06 0.705E-06 -.417E-06
   -.157E+02 -.624E+01 0.311E+02   0.157E+02 0.626E+01 -.318E+02   -.449E-01 -.108E+00 0.283E+00   0.121E-07 -.836E-06 0.757E-06
   0.812E+01 -.380E+01 0.366E+01   -.788E+01 0.420E+01 -.357E+01   -.278E+00 -.480E-01 0.133E-01   0.114E-06 0.535E-06 0.614E-06
   0.131E+01 -.990E+00 0.150E+02   -.143E+01 0.972E+00 -.151E+02   0.745E-02 -.118E+00 -.126E+00   0.704E-06 0.436E-06 0.720E-06
   -.503E+01 0.108E+02 0.314E+01   0.525E+01 -.112E+02 -.324E+01   -.299E-02 0.227E+00 0.211E+00   -.131E-05 -.943E-06 0.598E-06
   0.720E+01 0.228E+02 -.513E+01   -.714E+01 -.233E+02 0.524E+01   -.100E+00 0.182E+00 -.117E+00   -.739E-06 0.261E-06 -.744E-06
   -.272E+02 0.289E+01 0.331E+01   0.278E+02 -.304E+01 -.338E+01   -.169E+00 0.639E-01 0.105E+00   -.254E-06 0.914E-06 0.780E-06
   0.544E+01 -.117E+02 -.448E+01   -.568E+01 0.115E+02 0.427E+01   0.692E-01 0.977E-01 0.104E+00   0.373E-06 -.499E-07 -.190E-06
   0.744E+01 0.377E+01 0.836E+01   -.764E+01 -.387E+01 -.863E+01   0.177E+00 0.231E+00 0.182E+00   -.516E-06 0.178E-05 -.106E-07
   0.230E+02 0.104E+02 0.633E+01   -.235E+02 -.102E+02 -.628E+01   0.200E+00 -.261E+00 -.115E+00   0.142E-05 0.386E-06 0.878E-06
   0.153E+01 0.163E+00 0.303E+01   -.150E+01 -.498E+00 -.373E+01   -.123E+00 0.280E+00 0.306E+00   0.548E-06 0.712E-07 -.135E-06
   -.414E+01 -.907E+00 0.169E+02   0.425E+01 0.864E+00 -.175E+02   -.239E+00 0.349E-01 0.240E+00   0.400E-06 0.722E-06 0.162E-05
   -.381E+01 -.106E+02 0.843E+01   0.424E+01 0.113E+02 -.867E+01   -.173E+00 -.289E+00 0.232E+00   0.831E-06 -.724E-06 -.599E-07
   -.172E+02 0.150E+02 -.204E+02   0.177E+02 -.156E+02 0.205E+02   -.280E+00 0.289E+00 -.209E-01   -.133E-05 -.112E-06 -.144E-05
   -.140E+02 -.494E+01 0.143E+02   0.142E+02 0.507E+01 -.145E+02   0.236E-01 -.124E+00 0.118E+00   -.522E-06 -.364E-06 0.936E-06
   0.327E+01 -.306E+01 0.357E+01   -.353E+01 0.340E+01 -.379E+01   0.248E+00 -.162E+00 0.857E-01   0.775E-06 0.135E-06 -.113E-05
   0.210E+01 -.250E+02 -.150E+02   -.193E+01 0.259E+02 0.154E+02   -.116E+00 -.418E+00 -.199E+00   -.380E-07 -.803E-06 0.134E-06
   -.380E+01 -.701E+01 -.755E+01   0.366E+01 0.696E+01 0.828E+01   0.808E-01 0.149E+00 -.301E+00   0.374E-06 -.856E-06 -.602E-06
   -.717E+01 0.991E+00 0.609E+01   0.747E+01 -.890E+00 -.595E+01   -.187E+00 -.136E+00 -.237E+00   -.447E-07 -.424E-06 -.735E-07
   0.105E+02 0.200E+01 0.496E-02   -.109E+02 -.211E+01 0.218E+00   0.125E+00 -.391E-01 -.916E-01   0.342E-06 0.493E-06 0.543E-06
   -.150E+02 0.406E+01 -.165E+02   0.155E+02 -.448E+01 0.167E+02   -.279E+00 0.468E+00 -.259E-01   -.315E-06 0.104E-07 -.159E-05
   -.874E+01 -.166E+02 -.257E+01   0.861E+01 0.168E+02 0.270E+01   0.298E+00 -.181E-01 0.751E-02   -.439E-06 -.183E-05 -.370E-06
   0.156E+02 -.835E+01 0.883E+01   -.160E+02 0.873E+01 -.917E+01   0.114E+00 -.820E-01 0.858E-01   -.325E-07 -.654E-06 0.290E-05
   0.137E+02 -.199E+01 -.162E+02   -.139E+02 0.164E+01 0.162E+02   0.695E-01 0.908E-01 0.224E-01   0.341E-06 0.163E-06 -.113E-05
   -.958E+01 0.164E+02 -.346E+01   0.996E+01 -.167E+02 0.357E+01   -.219E+00 0.176E-01 0.246E-01   0.444E-06 0.660E-06 -.440E-06
   -.603E+01 0.400E+01 -.122E+01   0.618E+01 -.375E+01 0.122E+01   0.819E-01 -.157E-01 -.237E-01   -.670E-06 0.601E-07 0.154E-06
   0.536E+01 -.230E+01 0.188E+02   -.540E+01 0.224E+01 -.194E+02   -.110E+00 -.115E-01 0.274E+00   0.262E-06 -.558E-06 -.580E-06
   -.635E-01 0.633E-01 0.914E-01   0.124E-13 0.101E-12 -.394E-12   0.605E-01 -.649E-01 -.922E-01   -.441E-06 0.293E-06 -.408E-06

 POSITION                                       TOTAL-FORCE (eV/Angst)
      2.90118     11.51761      2.90250         0.010875      0.248979     -0.226494
      8.66567      0.00683      2.90135        -0.304749     -0.147559     -0.216572
      2.88101      5.77830      2.90715         0.001489     -0.131784     -0.142999
      8.66642      5.75229      2.86415        -0.135558     -0.033423      0.060806
      2.90760     11.51692      8.63255        -0.304653      0.039346      0.241015
      8.62412     11.50362      8.64645        -0.065258      0.182720     -0.079167
      2.87043      5.74999      8.66906         0.339337      0.288305     -0.217612
      8.64507      5.76577      8.61444        -0.065043      0.196427      0.304199
      1.46586      1.44617      1.42529        -0.106147     -0.165522      0.256974
      7.22058      1.46382      1.43193        -0.067585     -0.302561      0.019721
      1.41840      7.18394      1.44478         0.073528      0.176241      0.062766
      7.21019      7.20468      1.46996         0.036908      0.155898     -0.238066
      1.42392      1.43892      7.22837         0.239234      0.089604     -0.216520
      7.17999      1.44365      7.18527         0.316351     -0.160281      0.055038
      1.42481      7.19047      7.22537         0.442540      0.136508     -0.241375
      7.17571      7.21185      7.21100         0.084181     -0.037266     -0.055002
      2.88935      2.85454     11.51503         0.149841      0.404645     -0.033540
      8.65788      2.90321     11.51019        -0.214225     -0.181505     -0.028155
      2.87389      8.66661      0.01858        -0.286258     -0.329200     -0.183925
      8.66019      8.64717     11.50044        -0.087175     -0.061726      0.428232
      2.89199      2.88643      5.73523        -0.170125     -0.055470      0.536290
      8.66971      2.86588      5.76640        -0.273990      0.250824      0.037508
      2.90595      8.65738      5.75157        -0.439081     -0.209135      0.157512
      8.64697      8.61485      5.75778        -0.185976      0.304582      0.223039
      1.44002      4.29265      4.32757         0.016400      0.461407      0.078242
      7.22666      4.33708      4.33414        -0.032336     -0.395351     -0.254031
      1.45789     10.10745      4.31207        -0.282525     -0.110742      0.233268
      7.18066     10.06576      4.32422         0.154017      0.235998      0.057880
      1.45548      4.32190     10.05889        -0.218424     -0.328533      0.324480
      7.21608      4.34871     10.09117        -0.142392     -0.145940     -0.248240
      1.41171     10.09005     10.09077         0.218727      0.053394     -0.159471
      7.20139     10.09437     10.11343         0.032318     -0.161532     -0.226276
     11.51369      0.02747     11.52478         0.066137     -0.219246      0.146352
      5.75531     11.49786     11.51756         0.091012      0.299324      0.350868
     11.51976      5.73380     11.52126         0.163428      0.025185      0.038288
      5.76954      5.79202     11.52341         0.145055     -0.115951      0.112074
     11.50482      0.01983      5.77120         0.125011     -0.096940     -0.051546
      5.73619      0.01326      5.76646         0.151069     -0.356662      0.048439
      0.00201      5.77259      5.79117        -0.040861     -0.085005     -0.426854
      5.77780      5.74183      5.74754        -0.040731      0.355560      0.104413
      4.33023      1.45233      4.34860        -0.111642     -0.136332     -0.263938
     10.07452      1.46603      4.30992         0.219654     -0.221172      0.114226
      4.33546      7.22713      4.33510        -0.047087     -0.310043     -0.005940
     10.05609      7.20427      4.31419         0.398596     -0.089351      0.030968
      4.35171      1.43572     10.08391        -0.174658     -0.139565     -0.102523
     10.06272      1.42085     10.08795        -0.022136      0.127911     -0.080912
      4.33754      7.22005     10.10481        -0.329087     -0.005743     -0.061179
     10.10077      7.19244     10.10798        -0.090239     -0.054555     -0.395286
      0.02317      2.87636      2.89980        -0.134689     -0.008564     -0.356732
      5.74812      2.85548      2.88448         0.254113      0.393377     -0.014973
     11.50751      8.66783      2.88520         0.299363     -0.327626      0.138580
      5.73298      8.64676      2.88229         0.228279      0.006282     -0.106142
     11.50252      2.87149      8.66050        -0.008303      0.175471     -0.132798
      5.76831      2.85668      8.62824         0.047727      0.458874      0.186340
      0.00250      8.62392      8.62241        -0.057224      0.108584      0.423700
      5.75531      8.65887      8.66940         0.110036     -0.035087     -0.100308
      4.34008      4.34255      1.42797        -0.214354     -0.154151      0.131117
     10.07988      4.29678      1.42553         0.265621      0.039408      0.218681
      4.29897     10.06703      1.43444         0.174840      0.227952      0.142670
     10.10720     10.07300      1.45695        -0.263836      0.305023     -0.251747
      4.33607      4.34553      7.19094        -0.173994     -0.259450      0.099249
     10.07254      4.34704      7.19240         0.161857     -0.335489      0.134787
      4.30630     10.06033      7.20989         0.226594      0.226989     -0.023105
     10.09275     10.07971      7.23207        -0.153796     -0.066356     -0.356297
    total drift:                               -0.003005     -0.001604     -0.000818

  FREE ENERGIE OF THE ION-ELECTRON SYSTEM (eV)
  free  energy   TOTEN  =      -288.90173278 eV

  energy  without entropy=     -288.90162233  energy(sigma->0) =     -288.90167756